InSb 4.0000%  bi-strain along 111, volume=70.301698216
1.0
-.139007657  3.230072339  3.230072339
3.230072339  -.139007657  3.230072339
3.230072339  3.230072339  -.139007657
   In   Sb
    1    1
Cartesian
  0.000000   0.000000   0.000000   
  1.642837700  1.642837700  1.642837700
