InSb 4.0000%  uni-strain along 110, volume=65.537939740
1.0
-.123873623  3.121174440  3.369080000
3.121174440  -.123873623  3.369080000
2.997300816  2.997300816  0.0
   In   Sb
    1    1
Cartesian
  0.000000   0.000000   0.000000   
  1.498650408  1.498650408  1.796026260
