InSb 4.0000% (001)-biaxial strain, volume=8.789968225
1.0
  0.000000000 3.369080000 3.097595105                            
  3.369080000 0.000000000 3.097595105                           
  3.369080000 3.369080000 0.000000000
   In   Sb
    1    1
Direct
  0.000000   0.000000   0.000000   
  0.250000   0.250000   0.250000   
